
# Samples and dimension 
param m_train := 840;
param n_train := 4;


# Points
param A_train : 1 2 3 4 :=
1 0.201 0.165 0.228 0.348
2 0.879 0.599 0.772 0.091
3 0.58 0.341 0.2 0.495
4 0.706 0.437 0.741 0.559
5 0.914 0.768 0.215 0.121
6 0.241 0.44 0.613 0.112
7 0.317 0.313 0.233 0.545
8 0.301 0.424 0.259 0.073
9 0.033 0.653 0.855 0.233
10 0.948 0.94 0.586 0.69
11 0.103 0.604 0.267 0.318
12 0.143 0.559 0.165 0.755
13 0.232 0.073 0.983 0.465
14 0.644 0.766 0.041 0.903
15 0.556 0.936 0.493 0.41
16 0.641 0.359 0.109 0.227
17 0.608 0.329 0.653 0.874
18 0.378 0.017 0.206 0.543
19 0.877 0.775 0.845 0.86
20 0.463 0.504 0.006 0.504
21 0.846 0.06 0.343 0.339
22 0.513 0.98 0.829 0.622
23 0.878 0.229 0.535 0.532
24 0.183 0.91 0.121 0.389
25 0.893 0.266 0.228 0.738
26 0.468 0.201 0.63 0.475
27 0.037 0.321 0.765 0.381
28 0.236 0.894 0.639 0.065
29 0.845 0.943 0.745 0.381
30 0.848 0.563 0.385 0.969
31 0.838 0.862 0.218 0.066
32 0.344 0.534 0.802 0.974
33 0.507 0.011 0.33 0.273
34 0.99 0.508 0.286 0.629
35 0.801 0.474 0.517 0.546
36 0.991 0.394 0.418 0.376
37 0.37 0.213 0.225 0.588
38 0.826 0.932 0.813 0.628
39 0.823 0.135 0.917 0.153
40 0.309 0.142 0.917 0.595
41 0.49 0.396 0.245 0.007
42 0.1 0.998 0.335 0.518
43 0.699 0.888 0.587 0.924
44 0.867 0.75 0.408 0.68
45 0.314 0.503 0.514 0.231
46 0.922 0.54 0.798 0.839
47 0.569 0.329 0.53 0.814
48 0.472 0.914 0.334 0.807
49 0.708 0.506 0.32 0.296
50 0.796 0.162 0.18 0.204
51 0.559 0.518 0.345 0.073
52 0.001 0.995 0.289 0.798
53 0.424 0.367 0.163 0.954
54 0.499 0.426 0.094 0.834
55 0.526 0.542 0.739 0.845
56 0.169 0.642 0.0 0.349
57 0.843 0.908 0.364 0.188
58 0.114 0.188 0.976 0.403
59 0.81 0.827 0.353 0.973
60 0.533 0.472 0.208 0.627
61 0.441 0.153 0.848 0.179
62 0.685 0.348 0.64 0.685
63 0.486 0.528 0.606 0.851
64 0.587 0.964 0.904 0.563
65 0.89 0.373 0.195 0.243
66 0.976 0.776 0.818 0.184
67 0.124 0.624 0.556 0.971
68 0.554 0.656 0.152 0.194
69 0.85 0.681 0.869 0.456
70 0.585 0.043 0.496 0.488
71 0.863 0.378 0.979 0.058
72 0.325 0.034 0.397 0.143
73 0.801 0.266 0.842 0.357
74 0.646 0.911 0.893 0.798
75 0.235 0.649 0.786 0.104
76 0.317 0.689 0.148 0.813
77 0.755 0.676 0.555 0.734
78 0.176 0.058 0.768 0.573
79 0.986 0.374 0.467 0.829
80 0.704 0.475 0.642 0.598
81 0.747 0.833 0.922 0.534
82 0.027 0.851 0.626 0.175
83 0.803 0.93 0.34 0.358
84 0.074 0.534 0.722 0.843
85 0.923 0.829 0.481 0.39
86 0.212 0.094 0.132 0.854
87 0.406 0.601 0.525 0.327
88 0.462 0.354 0.986 0.087
89 0.65 0.89 0.459 0.99
90 0.123 0.064 0.781 0.844
91 0.888 0.767 0.736 0.369
92 0.393 0.581 0.252 0.525
93 0.944 0.931 0.035 0.469
94 0.17 0.93 0.612 0.155
95 0.142 0.805 0.907 0.601
96 0.154 0.723 0.858 0.935
97 0.765 0.823 0.335 0.501
98 0.493 0.894 0.773 0.744
99 0.207 0.688 0.35 0.242
100 0.608 0.412 0.087 0.22
101 0.104 0.362 0.371 0.011
102 0.166 0.165 0.686 0.024
103 0.254 0.789 0.924 0.589
104 0.116 0.082 0.183 0.889
105 0.602 0.096 0.514 0.952
106 0.671 0.56 0.75 0.757
107 0.317 0.861 0.142 0.688
108 0.105 0.854 0.038 0.791
109 0.139 0.046 0.668 0.063
110 0.957 0.179 0.717 0.141
111 0.543 0.743 0.165 0.057
112 0.503 0.727 0.255 0.253
113 0.035 0.569 0.346 0.178
114 0.219 0.283 0.112 0.257
115 0.99 0.395 0.12 0.658
116 0.755 0.615 0.637 0.472
117 0.705 0.014 0.499 0.87
118 0.194 0.372 0.799 0.45
119 0.283 0.485 0.195 0.629
120 0.452 0.848 0.946 0.564
121 0.02 0.554 0.5 0.14
122 0.958 0.895 0.828 0.594
123 0.584 0.299 0.381 0.083
124 0.452 0.278 0.541 0.251
125 0.166 0.534 0.212 0.361
126 0.875 0.813 0.012 0.821
127 0.117 0.841 0.932 0.616
128 0.144 0.574 0.876 0.972
129 0.243 0.555 0.467 0.624
130 0.636 0.076 0.916 0.177
131 0.643 0.344 0.861 0.855
132 0.025 0.73 0.518 0.037
133 0.896 0.153 0.391 0.827
134 0.372 0.972 0.344 0.248
135 0.512 0.49 0.499 0.979
136 0.137 0.616 0.19 0.053
137 0.517 0.696 0.137 0.378
138 0.842 0.403 0.281 0.36
139 0.832 0.255 0.593 0.223
140 0.362 0.595 0.054 0.706
141 0.998 0.218 0.333 0.496
142 0.447 0.633 0.813 0.637
143 0.606 0.154 0.382 0.743
144 0.934 0.585 0.935 0.215
145 0.374 0.047 0.2 0.967
146 0.282 0.329 0.865 0.337
147 0.708 0.334 0.253 0.041
148 0.451 0.488 0.463 0.264
149 0.15 0.87 0.28 0.532
150 0.812 0.466 0.198 0.747
151 0.142 0.121 0.728 0.341
152 0.998 0.624 0.418 0.863
153 0.453 0.572 0.294 0.706
154 0.125 0.157 0.101 0.588
155 0.227 0.738 0.291 0.507
156 0.903 0.319 0.736 0.101
157 0.416 0.243 0.186 0.144
158 0.275 0.142 0.208 0.692
159 0.168 0.145 0.578 0.463
160 0.19 0.587 0.008 0.292
161 0.429 0.519 0.913 0.72
162 0.183 0.623 0.344 0.919
163 0.409 0.335 0.967 0.596
164 0.551 0.87 0.622 0.759
165 0.628 0.927 0.708 0.205
166 0.559 0.396 0.978 0.568
167 0.153 0.997 0.206 0.066
168 0.232 0.249 0.34 0.576
169 0.064 0.985 0.503 0.031
170 0.982 0.582 0.452 0.604
171 0.014 0.232 0.269 0.722
172 0.659 0.281 0.832 0.636
173 0.52 0.789 0.846 0.726
174 0.562 0.958 0.105 0.902
175 0.273 0.966 0.52 0.776
176 0.101 0.758 0.579 0.553
177 0.92 0.567 0.594 0.188
178 0.03 0.847 0.57 0.863
179 0.419 0.383 0.273 0.265
180 0.128 0.827 0.067 0.234
181 0.602 0.507 0.696 0.121
182 0.692 0.222 0.041 0.271
183 0.403 0.191 0.342 0.996
184 0.63 0.027 0.226 0.2
185 0.709 0.619 0.272 0.982
186 0.382 0.11 0.711 0.449
187 0.441 0.051 0.851 0.136
188 0.133 0.829 0.394 0.174
189 0.169 0.577 0.291 0.51
190 0.669 0.141 0.6 0.895
191 0.489 0.605 0.961 0.762
192 0.845 0.144 0.697 0.556
193 0.041 0.997 0.643 0.891
194 0.815 0.025 0.963 0.209
195 0.063 0.378 0.775 0.353
196 0.348 0.023 0.029 0.948
197 0.37 0.437 0.522 0.331
198 0.109 0.176 0.343 0.806
199 0.935 0.847 0.729 0.578
200 0.863 0.393 0.763 0.826
201 0.961 0.888 0.98 0.736
202 0.868 0.084 0.264 0.897
203 0.182 0.267 0.469 0.704
204 0.668 0.813 0.773 0.01
205 0.505 0.945 0.466 0.235
206 0.204 0.098 0.917 0.967
207 0.519 0.928 0.812 0.5
208 0.054 0.368 0.748 0.318
209 0.78 0.5 0.532 0.249
210 0.13 0.916 0.017 0.903
211 0.637 0.409 0.872 0.103
212 0.396 0.307 0.742 0.313
213 0.665 0.832 0.202 0.478
214 0.866 0.531 0.699 0.614
215 0.964 0.394 0.348 0.496
216 0.552 0.626 0.559 0.57
217 0.486 0.206 0.939 0.358
218 0.582 0.754 0.616 0.324
219 0.889 0.989 0.899 0.091
220 0.231 0.957 0.998 0.93
221 0.847 0.894 0.965 0.196
222 0.608 0.748 0.017 0.167
223 0.547 0.653 0.524 0.486
224 0.832 0.068 0.765 0.448
225 0.832 0.337 0.382 0.731
226 0.849 0.961 0.386 0.847
227 0.957 0.694 0.786 0.923
228 0.177 0.531 0.638 0.194
229 0.955 0.741 0.351 0.479
230 0.362 0.311 0.295 0.127
231 0.687 0.959 0.097 0.068
232 0.525 0.917 0.651 0.911
233 0.542 0.868 0.458 0.328
234 0.348 0.504 0.321 0.986
235 0.019 0.941 0.439 0.37
236 0.666 0.732 0.731 0.961
237 0.49 0.648 0.818 0.587
238 0.508 0.112 0.633 0.159
239 0.397 0.701 0.891 0.856
240 0.681 0.204 0.533 0.002
241 0.231 0.022 0.131 0.67
242 0.551 0.336 0.124 0.282
243 0.984 0.772 0.945 0.802
244 0.661 0.31 0.471 0.294
245 0.494 0.692 0.169 0.384
246 0.198 0.066 0.752 0.73
247 0.942 0.961 0.09 0.073
248 0.481 0.624 0.967 0.605
249 0.264 0.589 0.677 0.209
250 0.036 0.869 0.701 0.507
251 0.17 0.0 0.855 0.339
252 0.403 0.536 0.45 0.154
253 0.518 0.096 0.228 0.608
254 0.859 0.089 0.792 0.826
255 0.697 0.089 0.284 0.375
256 0.675 0.41 0.167 0.376
257 0.331 0.546 0.917 0.186
258 0.302 0.588 0.421 0.752
259 0.688 0.27 0.838 0.915
260 0.007 0.774 0.966 0.799
261 0.661 0.496 0.689 0.944
262 0.987 0.619 0.281 0.154
263 0.198 0.485 0.54 0.115
264 0.425 0.417 0.259 0.846
265 0.002 0.533 0.438 0.84
266 0.316 0.847 0.222 0.282
267 0.821 0.942 0.142 0.51
268 0.012 0.497 0.506 0.293
269 0.5 0.491 0.136 0.041
270 0.807 0.466 0.024 0.066
271 0.193 0.068 0.845 0.631
272 0.293 0.947 0.754 0.516
273 0.4 0.337 0.171 0.542
274 0.058 0.554 0.344 0.563
275 0.995 0.064 0.339 0.131
276 0.945 0.937 0.57 0.969
277 0.882 0.162 0.071 0.727
278 0.978 0.02 0.74 0.733
279 0.969 0.133 0.873 0.14
280 0.72 0.197 0.228 0.064
281 0.075 0.059 0.824 0.414
282 0.929 0.359 0.127 0.499
283 0.13 0.381 0.491 0.201
284 0.284 0.179 0.127 0.024
285 0.663 0.993 0.044 0.535
286 0.718 0.255 0.329 0.947
287 0.09 0.022 0.377 0.915
288 0.567 0.843 0.795 0.693
289 0.124 0.823 0.724 0.614
290 0.831 0.898 0.203 0.958
291 0.115 0.621 0.915 0.159
292 0.047 0.877 0.412 0.377
293 0.73 0.467 0.846 0.108
294 0.281 0.675 0.225 0.076
295 0.567 0.2 0.191 0.291
296 0.215 0.122 0.712 0.418
297 0.635 0.533 0.701 0.55
298 0.857 0.597 0.569 0.269
299 0.393 0.999 0.44 0.239
300 0.822 0.52 0.782 0.047
301 0.15 0.614 0.796 0.341
302 0.61 0.556 0.027 0.322
303 0.107 0.957 0.507 0.808
304 0.199 0.665 0.104 0.768
305 0.078 0.161 0.933 0.518
306 0.04 0.34 0.92 0.822
307 0.516 0.972 0.001 0.311
308 0.906 0.921 0.869 0.932
309 0.844 0.039 0.201 0.351
310 0.708 0.551 0.511 0.812
311 0.445 0.89 0.48 0.378
312 0.879 0.418 0.749 0.799
313 0.136 0.315 0.212 0.136
314 0.525 0.042 0.547 0.394
315 0.791 0.238 0.013 0.991
316 0.86 0.699 0.14 0.371
317 0.459 0.816 0.402 0.938
318 0.81 0.818 0.613 0.559
319 0.853 0.695 0.931 0.065
320 0.557 0.59 0.873 0.105
321 0.847 0.895 0.222 0.86
322 0.811 0.72 0.586 0.951
323 0.097 0.409 0.907 0.499
324 0.102 0.309 0.166 0.715
325 0.782 0.568 0.563 0.714
326 0.394 0.271 0.224 0.267
327 0.208 0.114 0.271 0.429
328 0.158 0.24 0.693 0.744
329 0.784 0.841 0.601 0.691
330 0.949 0.792 0.649 0.114
331 0.517 0.896 0.075 0.08
332 0.709 0.474 0.882 0.932
333 0.258 0.14 0.854 0.529
334 0.827 0.687 0.81 0.521
335 0.001 0.304 0.272 0.602
336 0.612 0.55 0.787 0.261
337 0.294 0.779 0.561 0.37
338 0.171 0.078 0.333 0.053
339 0.073 0.311 0.15 0.927
340 0.72 0.754 0.527 0.529
341 0.957 0.53 0.579 0.23
342 0.574 0.842 0.682 0.362
343 0.347 0.656 0.882 0.908
344 0.741 0.079 0.104 0.074
345 0.115 0.146 0.443 0.265
346 0.282 0.985 0.827 0.809
347 0.102 0.766 0.045 0.681
348 0.177 0.255 0.838 0.859
349 0.941 0.206 0.273 0.823
350 0.299 0.564 0.193 0.403
351 0.325 0.518 0.784 0.768
352 0.857 0.05 0.768 0.684
353 0.282 0.786 0.625 0.327
354 0.621 0.504 0.723 0.459
355 0.339 0.4 0.569 0.612
356 0.683 0.911 0.787 0.876
357 0.424 0.201 0.832 0.208
358 0.615 0.065 0.019 0.383
359 0.878 0.665 0.536 0.503
360 0.004 0.125 0.495 0.726
361 0.858 0.066 0.984 0.427
362 0.207 0.11 0.589 0.994
363 0.903 0.418 0.188 0.735
364 0.156 0.349 0.691 0.175
365 0.441 0.053 0.397 0.977
366 0.389 0.981 0.681 0.884
367 0.265 0.742 0.773 0.248
368 0.451 0.455 0.28 0.04
369 0.267 0.943 0.867 0.454
370 0.493 0.611 0.026 0.184
371 0.758 0.626 0.839 0.155
372 0.396 0.543 0.583 0.077
373 0.29 0.341 0.17 0.063
374 0.339 0.513 0.045 0.62
375 0.493 0.886 0.496 0.36
376 0.173 0.853 0.952 0.199
377 0.738 0.957 0.663 0.577
378 0.266 0.973 0.655 0.849
379 0.083 0.14 0.391 0.252
380 0.98 0.592 0.716 0.025
381 0.269 0.518 0.098 0.764
382 0.439 0.937 0.732 0.391
383 0.769 0.129 0.093 0.432
384 0.205 0.698 0.679 0.86
385 0.729 0.943 0.687 0.12
386 0.889 0.1 0.787 0.605
387 0.998 0.874 0.643 0.096
388 0.522 0.535 0.575 0.253
389 0.711 0.022 0.054 0.804
390 0.76 0.009 0.153 0.439
391 0.7 0.168 0.812 0.387
392 0.007 0.277 0.387 0.793
393 0.512 0.791 0.756 0.155
394 0.394 0.677 0.422 0.969
395 0.348 0.681 0.953 0.402
396 0.408 0.162 0.494 0.56
397 0.363 0.261 0.768 0.174
398 0.055 0.181 0.925 0.442
399 0.807 0.954 0.765 0.563
400 0.652 0.957 0.787 0.074
401 0.718 0.422 0.607 0.671
402 0.092 0.078 0.986 0.585
403 0.586 0.948 0.9 0.355
404 0.548 0.41 0.303 0.473
405 0.277 0.279 0.807 0.042
406 0.916 0.694 0.799 0.704
407 0.726 0.421 0.191 0.333
408 0.015 0.424 0.171 0.0
409 0.81 0.587 0.957 0.709
410 0.08 0.257 0.352 0.383
411 0.204 0.66 0.009 0.011
412 0.851 0.927 0.396 0.65
413 0.165 0.376 0.052 0.356
414 0.144 0.371 0.133 0.315
415 0.142 0.125 0.958 0.1
416 0.9 0.179 0.091 0.251
417 0.821 0.455 0.222 0.83
418 0.924 0.681 0.393 0.32
419 0.024 0.485 0.707 0.076
420 0.416 0.22 0.211 0.548
421 0.582 0.691 0.66 0.54
422 0.494 0.44 0.97 0.585
423 0.532 0.406 0.146 0.754
424 0.612 0.677 0.916 0.005
425 0.247 0.029 0.482 0.954
426 0.322 0.37 0.324 0.533
427 0.859 0.115 0.609 0.519
428 0.399 0.013 0.095 0.369
429 0.786 0.9 0.004 0.933
430 0.239 0.545 0.331 0.155
431 0.328 0.402 0.579 0.809
432 0.683 0.132 0.727 0.007
433 0.645 0.867 0.78 0.254
434 0.435 0.653 0.399 0.531
435 0.997 0.317 0.922 0.001
436 0.576 0.239 0.794 0.907
437 0.344 0.234 0.797 0.923
438 0.154 0.605 0.175 0.881
439 0.84 0.526 0.48 0.62
440 0.866 0.056 0.432 0.265
441 0.454 0.262 0.903 0.376
442 0.153 0.951 0.502 0.947
443 0.896 0.291 0.092 0.693
444 0.136 0.847 0.819 0.311
445 0.432 0.152 0.253 0.911
446 0.032 0.777 0.828 0.465
447 0.415 0.919 0.304 0.318
448 0.566 0.471 0.246 0.067
449 0.103 0.964 0.709 0.195
450 0.923 0.331 0.503 0.742
451 0.231 0.174 0.795 0.484
452 0.567 0.516 0.862 0.395
453 0.904 0.81 0.9 0.208
454 0.194 0.773 0.599 0.439
455 0.017 0.543 0.804 0.727
456 0.461 0.65 0.07 0.965
457 0.712 0.196 0.565 0.507
458 0.65 0.074 0.195 0.512
459 0.176 0.417 0.279 0.076
460 0.407 0.27 0.398 0.006
461 0.238 0.023 0.252 0.043
462 0.99 0.504 0.399 0.059
463 0.791 0.772 0.664 0.356
464 0.344 0.006 0.353 0.539
465 0.822 0.715 0.935 0.101
466 0.559 0.508 0.06 0.957
467 0.769 0.195 0.537 0.021
468 0.287 0.011 0.742 0.686
469 0.211 0.477 0.842 0.876
470 0.122 0.219 0.839 0.475
471 0.358 0.297 0.473 0.293
472 0.264 0.852 0.905 0.325
473 0.419 0.094 0.005 0.956
474 0.243 0.243 0.126 0.986
475 0.197 0.197 0.406 0.039
476 0.239 0.161 0.292 0.078
477 0.05 0.436 0.932 0.523
478 0.329 0.787 0.582 0.235
479 0.391 0.653 0.205 0.396
480 0.321 0.639 0.852 0.447
481 0.781 0.643 0.821 0.187
482 0.894 0.426 0.843 0.185
483 0.478 0.235 0.941 0.41
484 0.67 0.739 0.545 0.252
485 0.656 0.643 0.627 0.862
486 0.237 0.182 0.678 0.088
487 0.302 0.869 0.272 0.124
488 0.955 0.017 0.482 0.798
489 0.987 0.276 0.437 0.928
490 0.195 0.598 0.426 0.74
491 0.399 0.396 0.493 0.027
492 0.532 0.263 0.439 0.21
493 0.068 0.512 0.221 0.341
494 0.277 0.295 0.653 0.76
495 0.855 0.747 0.369 0.293
496 0.055 0.488 0.272 0.481
497 0.122 0.88 0.623 0.615
498 0.88 0.147 0.17 0.32
499 0.522 0.388 0.869 0.743
500 0.505 0.02 0.024 0.158
501 0.117 0.013 0.527 0.486
502 0.201 0.541 0.793 0.473
503 0.02 0.595 0.903 0.643
504 0.81 0.523 0.357 0.98
505 0.714 0.502 0.231 0.583
506 0.959 0.087 0.265 0.983
507 0.045 0.1 0.258 0.572
508 0.563 0.773 0.127 0.356
509 0.15 0.376 0.841 0.052
510 0.052 0.862 0.542 0.409
511 0.385 0.122 0.344 0.615
512 0.589 0.574 0.792 0.854
513 0.037 0.899 0.657 0.294
514 0.243 0.858 0.244 0.37
515 0.49 0.519 0.59 0.332
516 0.609 0.383 0.434 0.152
517 0.275 0.536 0.914 0.619
518 0.619 0.208 0.726 0.411
519 0.283 0.448 0.961 0.94
520 0.432 0.183 0.6 0.675
521 0.814 0.166 0.072 0.404
522 0.644 0.013 0.88 0.078
523 0.672 0.353 0.701 0.586
524 0.853 0.205 0.18 0.579
525 0.241 0.862 0.064 0.202
526 0.806 0.633 0.986 0.405
527 0.539 0.219 0.474 0.611
528 0.972 0.255 0.636 0.852
529 0.801 0.524 0.686 0.502
530 0.658 0.355 0.315 0.837
531 0.931 0.078 0.796 0.994
532 0.599 0.8 0.913 0.585
533 0.222 0.123 0.424 0.696
534 0.047 0.668 0.989 0.683
535 0.322 0.483 0.043 0.008
536 0.153 0.665 0.34 0.468
537 0.274 0.398 0.581 0.07
538 0.861 0.669 0.192 0.774
539 0.397 0.996 0.378 0.821
540 0.112 0.868 0.36 0.101
541 0.879 0.424 0.035 0.923
542 0.02 0.076 0.096 0.36
543 0.599 0.634 0.942 0.18
544 0.335 0.041 0.374 0.527
545 0.628 0.924 0.811 0.006
546 0.503 0.118 0.614 0.862
547 0.165 0.742 0.643 0.2
548 0.074 0.22 0.741 0.17
549 0.285 0.769 0.214 0.227
550 0.918 0.562 0.989 0.292
551 0.804 0.92 0.013 0.615
552 0.759 0.117 0.043 0.373
553 0.262 0.538 0.722 0.905
554 0.386 0.979 0.958 0.127
555 0.537 0.411 0.918 0.751
556 0.867 0.669 0.2 0.857
557 0.289 0.661 0.881 0.303
558 0.807 0.062 0.393 0.85
559 0.373 0.112 0.973 0.094
560 0.711 0.48 0.996 0.669
561 0.146 0.206 0.018 0.064
562 0.656 0.931 0.626 0.856
563 0.587 0.146 0.449 0.468
564 0.724 0.275 0.51 0.117
565 0.945 0.489 0.237 0.919
566 0.254 0.63 0.064 0.251
567 0.671 0.396 0.505 0.689
568 0.462 0.345 0.391 0.088
569 0.179 0.675 0.347 0.628
570 0.796 0.352 0.418 0.306
571 0.543 0.252 0.958 0.78
572 0.541 0.034 0.801 0.605
573 0.1 0.276 0.681 0.605
574 0.141 0.068 0.31 0.532
575 0.511 0.711 0.831 0.859
576 0.975 0.655 0.69 0.393
577 0.159 0.936 0.213 0.117
578 0.383 0.658 0.75 0.184
579 0.035 0.284 0.539 0.716
580 0.503 0.856 0.957 0.813
581 0.112 0.325 0.099 0.944
582 0.438 0.919 0.838 0.128
583 0.799 0.287 0.248 0.012
584 0.964 0.395 0.061 0.714
585 0.324 0.749 0.862 0.863
586 0.752 0.366 0.321 0.708
587 0.709 0.821 0.504 0.809
588 0.687 0.246 0.683 0.526
589 0.995 0.325 0.661 0.243
590 0.064 0.207 0.731 0.125
591 0.31 0.449 0.671 0.173
592 0.136 0.924 0.678 0.457
593 0.857 0.166 0.453 0.361
594 0.217 0.048 0.221 0.9
595 0.596 0.895 0.899 0.257
596 0.236 0.321 0.346 0.967
597 0.268 0.277 0.896 0.938
598 0.208 0.074 0.374 0.886
599 0.007 0.743 0.697 0.459
600 0.672 0.676 0.153 0.893
601 0.727 0.489 0.472 0.626
602 0.611 0.862 0.067 0.957
603 0.514 0.224 0.106 0.41
604 0.556 0.618 0.237 0.931
605 0.767 0.937 0.247 0.464
606 0.352 0.136 0.073 0.505
607 0.65 0.232 0.518 0.122
608 0.264 0.732 0.72 0.331
609 0.549 0.845 0.913 0.655
610 0.075 0.211 0.872 0.312
611 0.376 0.079 0.079 0.624
612 0.475 0.975 0.68 0.548
613 0.71 0.198 0.712 0.228
614 0.57 0.492 0.052 0.289
615 0.74 0.838 0.668 0.653
616 0.923 0.729 0.704 0.795
617 0.846 0.171 0.12 0.925
618 0.664 0.401 0.77 0.344
619 0.25 0.054 0.147 0.962
620 0.466 0.531 0.775 0.518
621 0.598 0.258 0.659 0.267
622 0.152 0.19 0.64 0.856
623 0.681 0.703 0.156 0.801
624 0.951 0.465 0.028 0.721
625 0.977 0.971 0.864 0.124
626 0.146 0.59 0.464 0.921
627 0.285 0.519 0.365 0.944
628 0.276 0.096 0.976 0.916
629 0.96 0.597 0.655 0.116
630 0.282 0.067 0.864 0.311
631 0.673 0.288 0.759 0.537
632 0.691 0.683 0.001 0.156
633 0.108 0.441 0.124 0.474
634 0.91 0.75 0.48 0.885
635 0.432 0.845 0.263 0.087
636 0.662 0.369 0.029 0.525
637 0.817 0.198 0.968 0.575
638 0.379 0.267 0.418 0.381
639 0.023 0.489 0.863 0.146
640 0.247 0.056 0.712 0.728
641 0.379 0.16 0.786 0.642
642 0.748 0.303 0.615 0.777
643 0.295 0.594 0.027 0.263
644 0.762 0.642 0.436 0.181
645 0.858 0.203 0.512 0.721
646 0.474 0.969 0.405 0.186
647 0.346 0.565 0.856 0.133
648 0.103 0.881 0.51 0.718
649 0.339 0.013 0.251 0.366
650 0.42 0.128 0.918 0.856
651 0.941 0.715 0.512 0.452
652 0.862 0.926 0.405 0.267
653 0.101 0.613 0.677 0.957
654 0.884 0.06 0.627 0.394
655 0.284 0.733 0.791 0.536
656 0.067 0.956 0.227 0.985
657 0.536 0.926 0.526 0.048
658 0.962 0.91 0.304 0.367
659 0.417 0.469 0.79 0.094
660 0.536 0.979 0.486 0.163
661 0.264 0.448 0.106 0.055
662 0.205 0.122 0.939 0.432
663 0.751 0.968 0.033 0.277
664 0.411 0.24 0.927 0.715
665 0.104 0.132 0.076 0.894
666 0.502 0.431 0.205 0.987
667 0.578 0.251 0.042 0.684
668 0.025 0.89 0.428 0.964
669 0.535 0.715 0.291 0.568
670 0.307 0.98 0.232 0.234
671 0.839 0.338 0.827 0.915
672 0.054 0.417 0.662 0.259
673 0.256 0.837 0.655 0.298
674 0.961 0.323 0.411 0.389
675 0.733 0.925 0.002 0.024
676 0.994 0.331 0.473 0.226
677 0.168 0.065 0.902 0.995
678 0.134 0.049 0.397 0.797
679 0.801 0.053 0.145 0.456
680 0.666 0.418 0.674 0.078
681 0.961 0.811 0.732 0.962
682 0.225 0.956 0.165 0.698
683 0.73 0.866 0.248 0.632
684 0.228 0.767 0.91 0.625
685 0.218 0.426 0.616 0.363
686 0.967 0.03 0.3 0.641
687 0.107 0.602 0.918 0.839
688 0.752 0.065 0.52 0.917
689 0.703 0.647 0.629 0.951
690 0.49 0.179 0.046 0.4
691 0.61 0.618 0.231 0.226
692 0.114 0.193 0.011 0.414
693 0.119 0.522 0.436 0.037
694 0.0 0.789 0.426 0.52
695 0.189 0.223 0.354 0.817
696 0.634 0.307 0.353 0.68
697 0.158 0.29 0.326 0.389
698 0.307 0.503 0.709 0.319
699 0.544 0.437 0.439 0.98
700 0.801 0.98 0.263 0.226
701 0.969 0.415 0.723 0.322
702 0.897 0.956 0.54 0.25
703 0.247 0.408 0.926 0.573
704 0.442 0.88 0.3 0.151
705 0.218 0.695 0.636 0.657
706 0.11 0.458 0.654 0.372
707 0.154 0.341 0.099 0.877
708 0.332 0.774 0.619 0.872
709 0.255 0.119 0.433 0.181
710 0.23 0.623 0.571 0.53
711 0.77 0.748 0.468 0.406
712 0.143 0.516 0.864 0.797
713 0.548 0.952 0.229 0.647
714 0.892 0.979 0.604 0.512
715 0.628 0.767 0.969 0.061
716 0.661 0.291 0.571 0.232
717 0.345 0.002 0.57 0.814
718 0.975 0.956 0.924 0.839
719 0.812 0.387 0.705 0.04
720 0.535 0.932 0.013 0.138
721 0.864 0.766 0.211 0.833
722 0.159 0.494 0.118 0.731
723 0.939 0.076 0.728 0.508
724 0.137 0.484 0.846 0.061
725 0.6 0.872 0.709 0.305
726 0.743 0.84 0.845 0.756
727 0.289 0.619 0.744 0.5
728 0.571 0.66 0.946 0.689
729 0.672 0.627 0.466 0.4
730 0.356 0.537 0.619 0.202
731 0.942 0.801 0.47 0.65
732 0.382 0.393 0.946 0.228
733 0.924 0.517 0.768 0.668
734 0.22 0.239 0.676 0.166
735 0.067 0.838 0.555 0.533
736 0.691 0.889 0.776 0.31
737 0.374 0.252 0.892 0.843
738 0.998 0.226 0.295 0.945
739 0.444 0.868 0.97 0.211
740 0.987 0.431 0.775 0.663
741 0.702 0.73 0.436 0.257
742 0.674 0.948 0.152 0.45
743 0.243 0.824 0.509 0.135
744 0.411 0.133 0.893 0.706
745 0.346 0.15 0.946 0.316
746 0.482 0.303 0.792 0.257
747 0.39 0.96 0.696 0.825
748 0.96 0.499 0.164 0.112
749 0.422 0.355 0.773 0.931
750 0.44 0.342 0.622 0.333
751 0.7 0.679 0.198 0.646
752 0.559 0.129 0.299 0.351
753 0.265 0.74 0.345 0.961
754 0.562 0.921 0.065 0.726
755 0.014 0.148 0.387 0.787
756 0.877 0.227 0.422 0.499
757 0.47 0.199 0.24 0.667
758 0.235 0.226 0.974 0.534
759 0.36 0.799 0.317 0.706
760 0.882 0.268 0.682 0.947
761 0.715 0.961 0.142 0.102
762 0.222 0.979 0.976 0.643
763 0.536 0.113 0.677 0.776
764 0.523 0.011 0.006 0.498
765 0.583 0.858 0.344 0.9
766 0.105 0.782 0.831 0.787
767 0.825 0.501 0.69 0.967
768 0.438 0.189 0.582 0.413
769 0.06 0.95 0.944 0.737
770 0.725 0.261 0.737 0.731
771 0.282 0.314 0.616 0.626
772 0.179 0.731 0.995 0.01
773 0.724 0.835 0.019 0.413
774 0.622 0.851 0.991 0.204
775 0.823 0.264 0.214 0.767
776 0.939 0.492 0.262 0.676
777 0.02 0.958 0.536 0.636
778 0.749 0.816 0.315 0.744
779 0.833 0.468 0.661 0.852
780 0.464 0.474 0.732 0.455
781 0.996 0.278 0.942 0.21
782 0.944 0.15 0.536 0.206
783 0.759 0.226 0.783 0.295
784 0.367 0.044 0.678 0.683
785 0.504 0.516 0.257 0.166
786 0.138 0.63 0.842 0.87
787 0.521 0.866 0.362 0.463
788 0.407 0.407 0.226 0.943
789 0.051 0.702 0.839 0.835
790 0.702 0.202 0.042 0.38
791 0.831 0.884 0.401 0.087
792 0.769 0.225 0.68 0.611
793 0.764 0.132 0.96 0.126
794 0.036 0.533 0.002 0.262
795 0.615 0.313 0.178 0.454
796 0.176 0.156 0.35 0.217
797 0.235 0.048 0.42 0.635
798 0.47 0.404 0.36 0.149
799 0.454 0.913 0.147 0.414
800 0.742 0.45 0.572 0.744
801 0.048 0.36 0.026 0.227
802 0.174 0.402 0.97 0.523
803 0.506 0.758 0.667 0.925
804 0.802 0.395 0.797 0.162
805 0.812 0.616 0.458 0.959
806 0.497 0.701 0.48 0.07
807 0.192 0.118 0.805 0.218
808 0.619 0.392 0.747 0.589
809 0.367 0.095 0.673 0.034
810 0.066 0.837 0.415 0.863
811 0.96 0.675 0.615 0.418
812 0.644 0.915 0.335 0.124
813 0.781 0.317 0.103 0.586
814 0.448 0.206 0.926 0.195
815 0.841 0.562 0.889 0.515
816 0.909 0.581 0.432 0.325
817 0.431 0.284 0.119 0.046
818 0.753 0.69 0.617 0.089
819 0.602 0.87 0.131 0.705
820 0.666 0.153 0.662 0.592
821 0.456 0.434 0.91 0.346
822 0.506 0.255 0.529 0.938
823 0.973 0.369 0.864 0.092
824 0.566 0.845 0.104 0.183
825 0.919 0.785 0.803 0.05
826 0.259 0.716 0.644 0.921
827 0.992 0.378 0.742 0.902
828 0.69 0.408 0.978 0.218
829 0.558 0.191 0.715 0.422
830 0.13 0.988 0.128 0.234
831 0.061 0.153 0.956 0.864
832 0.447 0.124 0.919 0.09
833 0.227 0.082 0.423 0.968
834 0.146 0.658 0.392 0.124
835 0.738 0.682 0.068 0.453
836 0.35 0.583 0.092 0.478
837 0.263 0.539 0.97 0.22
838 0.172 0.666 0.527 0.091
839 0.572 0.318 0.838 0.994
840 0.823 0.14 0.945 0.215
;

# Labels
param y_train :=
1 -1.0
2 1.0
3 -1.0
4 1.0
5 1.0
6 -1.0
7 -1.0
8 -1.0
9 -1.0
10 1.0
11 -1.0
12 -1.0
13 -1.0
14 1.0
15 1.0
16 -1.0
17 1.0
18 -1.0
19 1.0
20 -1.0
21 -1.0
22 1.0
23 1.0
24 -1.0
25 1.0
26 -1.0
27 -1.0
28 -1.0
29 1.0
30 -1.0
31 -1.0
32 1.0
33 -1.0
34 1.0
35 1.0
36 1.0
37 -1.0
38 1.0
39 1.0
40 -1.0
41 -1.0
42 -1.0
43 1.0
44 1.0
45 -1.0
46 1.0
47 1.0
48 1.0
49 -1.0
50 -1.0
51 -1.0
52 1.0
53 -1.0
54 -1.0
55 1.0
56 -1.0
57 -1.0
58 1.0
59 1.0
60 -1.0
61 1.0
62 1.0
63 1.0
64 1.0
65 -1.0
66 1.0
67 1.0
68 -1.0
69 1.0
70 -1.0
71 1.0
72 -1.0
73 1.0
74 1.0
75 -1.0
76 -1.0
77 1.0
78 -1.0
79 1.0
80 1.0
81 1.0
82 -1.0
83 1.0
84 1.0
85 1.0
86 -1.0
87 -1.0
88 -1.0
89 1.0
90 -1.0
91 1.0
92 -1.0
93 1.0
94 -1.0
95 1.0
96 1.0
97 1.0
98 1.0
99 -1.0
100 -1.0
101 1.0
102 -1.0
103 1.0
104 -1.0
105 1.0
106 1.0
107 1.0
108 -1.0
109 -1.0
110 -1.0
111 -1.0
112 -1.0
113 -1.0
114 -1.0
115 1.0
116 1.0
117 1.0
118 -1.0
119 -1.0
120 1.0
121 -1.0
122 1.0
123 -1.0
124 -1.0
125 -1.0
126 1.0
127 -1.0
128 1.0
129 -1.0
130 -1.0
131 1.0
132 -1.0
133 1.0
134 -1.0
135 1.0
136 -1.0
137 -1.0
138 -1.0
139 -1.0
140 -1.0
141 1.0
142 1.0
143 -1.0
144 1.0
145 -1.0
146 -1.0
147 -1.0
148 -1.0
149 -1.0
150 1.0
151 -1.0
152 -1.0
153 1.0
154 -1.0
155 -1.0
156 1.0
157 -1.0
158 -1.0
159 -1.0
160 -1.0
161 1.0
162 1.0
163 1.0
164 1.0
165 1.0
166 1.0
167 -1.0
168 -1.0
169 -1.0
170 1.0
171 -1.0
172 1.0
173 1.0
174 1.0
175 -1.0
176 -1.0
177 1.0
178 1.0
179 -1.0
180 -1.0
181 -1.0
182 -1.0
183 -1.0
184 -1.0
185 1.0
186 -1.0
187 -1.0
188 -1.0
189 -1.0
190 1.0
191 1.0
192 1.0
193 1.0
194 1.0
195 -1.0
196 -1.0
197 -1.0
198 -1.0
199 1.0
200 1.0
201 1.0
202 1.0
203 -1.0
204 1.0
205 1.0
206 1.0
207 1.0
208 -1.0
209 1.0
210 -1.0
211 1.0
212 -1.0
213 1.0
214 1.0
215 1.0
216 1.0
217 -1.0
218 1.0
219 1.0
220 1.0
221 1.0
222 -1.0
223 1.0
224 1.0
225 1.0
226 1.0
227 1.0
228 -1.0
229 1.0
230 -1.0
231 -1.0
232 1.0
233 1.0
234 1.0
235 -1.0
236 1.0
237 1.0
238 -1.0
239 1.0
240 -1.0
241 -1.0
242 -1.0
243 1.0
244 -1.0
245 -1.0
246 -1.0
247 1.0
248 1.0
249 -1.0
250 1.0
251 -1.0
252 -1.0
253 -1.0
254 1.0
255 -1.0
256 -1.0
257 -1.0
258 1.0
259 1.0
260 1.0
261 1.0
262 -1.0
263 -1.0
264 -1.0
265 -1.0
266 -1.0
267 1.0
268 -1.0
269 -1.0
270 -1.0
271 -1.0
272 1.0
273 -1.0
274 -1.0
275 -1.0
276 1.0
277 -1.0
278 1.0
279 1.0
280 -1.0
281 -1.0
282 -1.0
283 -1.0
284 -1.0
285 1.0
286 1.0
287 -1.0
288 1.0
289 1.0
290 1.0
291 -1.0
292 -1.0
293 1.0
294 -1.0
295 -1.0
296 -1.0
297 1.0
298 -1.0
299 1.0
300 1.0
301 -1.0
302 1.0
303 1.0
304 -1.0
305 -1.0
306 1.0
307 -1.0
308 1.0
309 -1.0
310 1.0
311 1.0
312 1.0
313 -1.0
314 1.0
315 1.0
316 1.0
317 1.0
318 1.0
319 1.0
320 -1.0
321 1.0
322 1.0
323 -1.0
324 -1.0
325 1.0
326 -1.0
327 1.0
328 -1.0
329 1.0
330 1.0
331 -1.0
332 1.0
333 -1.0
334 1.0
335 1.0
336 1.0
337 1.0
338 -1.0
339 -1.0
340 1.0
341 1.0
342 1.0
343 1.0
344 -1.0
345 -1.0
346 1.0
347 1.0
348 1.0
349 1.0
350 -1.0
351 1.0
352 1.0
353 1.0
354 1.0
355 -1.0
356 1.0
357 1.0
358 -1.0
359 -1.0
360 -1.0
361 1.0
362 1.0
363 1.0
364 -1.0
365 -1.0
366 1.0
367 1.0
368 -1.0
369 1.0
370 -1.0
371 1.0
372 -1.0
373 -1.0
374 -1.0
375 1.0
376 1.0
377 1.0
378 1.0
379 -1.0
380 1.0
381 -1.0
382 1.0
383 -1.0
384 1.0
385 1.0
386 1.0
387 1.0
388 -1.0
389 -1.0
390 -1.0
391 1.0
392 -1.0
393 1.0
394 1.0
395 1.0
396 -1.0
397 -1.0
398 1.0
399 1.0
400 1.0
401 1.0
402 -1.0
403 1.0
404 -1.0
405 -1.0
406 1.0
407 -1.0
408 -1.0
409 1.0
410 -1.0
411 -1.0
412 1.0
413 -1.0
414 -1.0
415 -1.0
416 -1.0
417 1.0
418 1.0
419 -1.0
420 -1.0
421 1.0
422 1.0
423 -1.0
424 -1.0
425 -1.0
426 -1.0
427 1.0
428 -1.0
429 1.0
430 -1.0
431 1.0
432 -1.0
433 1.0
434 1.0
435 1.0
436 1.0
437 1.0
438 -1.0
439 1.0
440 -1.0
441 -1.0
442 1.0
443 -1.0
444 1.0
445 -1.0
446 1.0
447 -1.0
448 -1.0
449 -1.0
450 1.0
451 -1.0
452 -1.0
453 1.0
454 1.0
455 1.0
456 1.0
457 -1.0
458 -1.0
459 -1.0
460 -1.0
461 -1.0
462 -1.0
463 1.0
464 -1.0
465 1.0
466 1.0
467 -1.0
468 -1.0
469 1.0
470 -1.0
471 -1.0
472 1.0
473 -1.0
474 -1.0
475 -1.0
476 -1.0
477 -1.0
478 -1.0
479 -1.0
480 1.0
481 1.0
482 1.0
483 1.0
484 -1.0
485 1.0
486 -1.0
487 -1.0
488 1.0
489 1.0
490 -1.0
491 -1.0
492 -1.0
493 -1.0
494 -1.0
495 1.0
496 -1.0
497 1.0
498 -1.0
499 1.0
500 -1.0
501 -1.0
502 1.0
503 1.0
504 1.0
505 1.0
506 1.0
507 -1.0
508 -1.0
509 -1.0
510 -1.0
511 -1.0
512 1.0
513 -1.0
514 -1.0
515 -1.0
516 -1.0
517 1.0
518 -1.0
519 1.0
520 -1.0
521 -1.0
522 -1.0
523 -1.0
524 -1.0
525 -1.0
526 1.0
527 -1.0
528 1.0
529 1.0
530 1.0
531 1.0
532 1.0
533 -1.0
534 1.0
535 1.0
536 -1.0
537 -1.0
538 1.0
539 1.0
540 -1.0
541 1.0
542 -1.0
543 1.0
544 -1.0
545 1.0
546 1.0
547 -1.0
548 -1.0
549 -1.0
550 1.0
551 1.0
552 1.0
553 1.0
554 1.0
555 1.0
556 -1.0
557 1.0
558 1.0
559 -1.0
560 1.0
561 1.0
562 1.0
563 -1.0
564 -1.0
565 1.0
566 -1.0
567 1.0
568 -1.0
569 -1.0
570 -1.0
571 1.0
572 -1.0
573 1.0
574 -1.0
575 1.0
576 -1.0
577 -1.0
578 -1.0
579 -1.0
580 1.0
581 -1.0
582 1.0
583 -1.0
584 1.0
585 1.0
586 1.0
587 1.0
588 1.0
589 1.0
590 -1.0
591 -1.0
592 1.0
593 1.0
594 -1.0
595 1.0
596 -1.0
597 1.0
598 -1.0
599 -1.0
600 1.0
601 1.0
602 1.0
603 -1.0
604 1.0
605 1.0
606 -1.0
607 -1.0
608 1.0
609 1.0
610 -1.0
611 -1.0
612 1.0
613 -1.0
614 -1.0
615 1.0
616 1.0
617 1.0
618 1.0
619 -1.0
620 1.0
621 -1.0
622 1.0
623 1.0
624 1.0
625 1.0
626 1.0
627 1.0
628 -1.0
629 1.0
630 -1.0
631 1.0
632 -1.0
633 -1.0
634 1.0
635 1.0
636 -1.0
637 1.0
638 -1.0
639 1.0
640 -1.0
641 -1.0
642 1.0
643 -1.0
644 1.0
645 1.0
646 1.0
647 -1.0
648 1.0
649 -1.0
650 1.0
651 1.0
652 1.0
653 1.0
654 -1.0
655 1.0
656 1.0
657 1.0
658 1.0
659 -1.0
660 1.0
661 1.0
662 -1.0
663 1.0
664 1.0
665 -1.0
666 1.0
667 -1.0
668 1.0
669 -1.0
670 -1.0
671 1.0
672 -1.0
673 1.0
674 1.0
675 -1.0
676 1.0
677 -1.0
678 -1.0
679 -1.0
680 -1.0
681 1.0
682 1.0
683 1.0
684 1.0
685 -1.0
686 -1.0
687 1.0
688 1.0
689 1.0
690 -1.0
691 1.0
692 -1.0
693 -1.0
694 -1.0
695 -1.0
696 -1.0
697 -1.0
698 -1.0
699 1.0
700 1.0
701 1.0
702 1.0
703 1.0
704 -1.0
705 1.0
706 -1.0
707 -1.0
708 1.0
709 -1.0
710 -1.0
711 1.0
712 1.0
713 1.0
714 1.0
715 1.0
716 -1.0
717 -1.0
718 1.0
719 -1.0
720 -1.0
721 1.0
722 -1.0
723 1.0
724 -1.0
725 1.0
726 -1.0
727 1.0
728 1.0
729 1.0
730 -1.0
731 1.0
732 -1.0
733 1.0
734 -1.0
735 -1.0
736 1.0
737 1.0
738 1.0
739 1.0
740 1.0
741 1.0
742 1.0
743 -1.0
744 1.0
745 -1.0
746 1.0
747 1.0
748 -1.0
749 1.0
750 -1.0
751 -1.0
752 -1.0
753 1.0
754 1.0
755 -1.0
756 1.0
757 -1.0
758 -1.0
759 1.0
760 -1.0
761 -1.0
762 1.0
763 1.0
764 -1.0
765 1.0
766 1.0
767 1.0
768 -1.0
769 1.0
770 1.0
771 -1.0
772 -1.0
773 -1.0
774 1.0
775 1.0
776 1.0
777 1.0
778 1.0
779 1.0
780 1.0
781 1.0
782 -1.0
783 1.0
784 -1.0
785 -1.0
786 1.0
787 1.0
788 -1.0
789 -1.0
790 -1.0
791 1.0
792 1.0
793 -1.0
794 -1.0
795 -1.0
796 -1.0
797 -1.0
798 -1.0
799 -1.0
800 1.0
801 -1.0
802 1.0
803 1.0
804 1.0
805 1.0
806 -1.0
807 -1.0
808 1.0
809 -1.0
810 -1.0
811 1.0
812 -1.0
813 -1.0
814 -1.0
815 1.0
816 1.0
817 -1.0
818 1.0
819 1.0
820 1.0
821 1.0
822 1.0
823 1.0
824 -1.0
825 1.0
826 1.0
827 1.0
828 1.0
829 -1.0
830 -1.0
831 1.0
832 -1.0
833 1.0
834 -1.0
835 -1.0
836 -1.0
837 -1.0
838 -1.0
839 1.0
840 1.0
;
